6 9 19 7 3 16 2 14 18 17 1 0 15 13 12 4 8 5 10 11  
6 9 19 7 16 3 15 14 18 17 1 0 2 13 8 4 12 5 10 11  
9 6 19 7 3 16 2 14 18 17 1 0 15 13 12 4 8 5 10 11  
9 6 19 7 17 1 8 18 2 15 13 16 14 0 4 3 10 12 5 11  
6 9 19 7 16 3 2 17 18 14 13 1 15 0 8 4 12 5 10 11  
6 9 19 7 16 14 3 18 2 17 15 13 1 0 8 4 10 12 5 11  
6 9 19 7 16 18 2 17 3 14 13 0 15 1 12 4 8 5 10 11  
9 16 6 19 7 14 18 15 13 8 2 3 17 1 4 0 12 5 10 11  
6 9 19 7 16 3 2 14 18 17 1 0 15 13 12 4 8 5 10 11  
6 9 19 3 16 7 2 17 14 18 13 1 15 0 8 4 12 5 10 11  
9 6 19 3 16 7 2 14 18 17 1 15 13 4 0 12 8 5 10 11  
9 6 19 7 3 16 2 14 18 17 1 0 15 13 12 4 8 5 10 11  
6 9 19 7 16 14 3 18 2 17 15 13 1 0 4 12 5 8 10 11  
6 9 19 18 7 16 2 14 3 17 1 0 15 13 12 4 8 5 10 11  
6 9 19 3 16 7 2 14 18 17 1 0 15 13 8 4 10 12 5 11  
6 18 16 19 9 14 7 15 13 8 3 2 17 4 1 0 12 5 10 11  
6 9 19 3 16 7 2 14 18 17 15 13 1 0 8 12 4 5 10 11  
6 9 19 7 16 14 3 18 2 17 15 13 1 0 8 4 12 5 10 11  
6 9 19 7 16 14 3 18 2 17 15 13 1 0 4 12 5 8 10 11  
6 9 19 3 16 7 2 14 18 15 17 13 1 0 8 5 12 4 10 11  
6 9 19 3 16 7 2 14 18 17 15 13 1 0 4 12 5 10 8 11  
9 3 6 19 16 7 2 17 14 18 13 1 15 0 8 4 12 5 10 11  
6 9 19 7 3 16 2 14 18 1 0 15 13 4 12 5 10 11 8 17  
6 9 19 3 16 7 2 14 18 15 17 13 1 0 4 12 5 8 10 11  
6 9 19 3 7 16 2 14 18 1 0 15 13 4 12 5 8 17 10 11  
6 9 19 7 16 3 2 17 18 14 13 1 0 15 8 4 12 5 10 11  
6 9 19 7 16 3 2 17 18 14 13 0 15 1 8 4 12 5 10 11  
6 9 19 7 16 18 12 14 3 17 1 0 15 13 2 4 8 5 10 11  
9 6 19 3 18 16 2 14 7 17 1 0 15 13 12 4 8 5 10 11  
9 6 19 7 17 1 8 18 2 15 16 13 0 14 4 3 10 12 5 11  
6 9 19 7 17 1 8 18 2 15 16 3 13 14 0 12 4 5 10 11  
6 9 19 7 16 18 2 14 3 17 13 0 15 1 12 4 8 5 10 11  
6 9 19 7 16 14 3 15 13 8 18 2 17 1 0 4 12 5 10 11  
6 9 19 3 16 7 2 14 18 17 1 0 15 13 8 4 12 5 10 11  
6 9 19 7 16 3 14 18 2 17 13 1 15 0 8 4 12 5 10 11  
9 6 3 19 16 7 2 17 14 18 13 1 15 0 8 4 12 5 10 11  
6 7 19 3 16 9 15 14 18 17 1 0 2 13 12 4 8 5 10 11  
